unsat
(define-fun inv ((i Int) (l Int)) Bool (let ((_let_1 (* (- 1) l))) (and (<= (+ _let_1 _let_1) 1) (<= (+ (* 0 l) (* 1 l)) 4))))
1.38user 0.00system 0:01.39elapsed 99%CPU (0avgtext+0avgdata 35040maxresident)k
0inputs+8outputs (0major+3410minor)pagefaults 0swaps
